248 241 242 247 246 245 244 243 240 239 238 237 509 510 511 513 512 527 528 529 236 235 234 233 232 225 226 191 192 190 189 227 228 229 230 231 533 532 531 530 489 488 534 535 487 486 490 491 492 493 494 524 525 526 523 521 522 514 515 516 517 520 519 518 495 471 472 473 474 570 569 568 20 21 24 25 26 27 28 29 558 557 556 554 553 552 100 99 98 102 101 551 550 559 560 561 562 549 548 564 563 565 566 567 475 476 477 478 479 480 481 482 483 485 484 536 537 539 538 540 176 177 178 187 188 186 182 183 185 184 193 219 218 220 221 222 224 223 217 216 215 214 213 212 211 210 209 194 195 196 197 205 206 207 208 203 204 202 201 200 199 198 181 179 180 169 171 170 172 175 174 173 108 109 111 110 107 542 541 543 544 545 546 547 103 104 105 106 115 114 112 113 161 160 162 168 163 167 166 164 165 154 155 159 156 153 157 158 145 146 147 148 152 149 150 151 142 143 144 141 140 139 136 135 134 133 132 131 130 129 137 138 69 68 70 124 125 126 127 128 116 117 122 123 71 72 65 66 67 64 62 78 77 76 75 74 73 119 120 121 118 95 96 97 94 89 88 87 90 85 86 81 80 79 63 61 60 59 58 57 82 83 56 55 53 54 52 51 84 50 49 48 47 91 92 93 555 46 45 44 43 42 39 41 40 35 34 33 38 37 36 32 30 31 22 23 12 13 14 15 16 19 18 17 11 10 9 8 7 6 5 4 3 2 1 0 573 572 571 468 469 470 496 497 464 465 467 466 463 462 461 460 459 458 457 456 455 454 439 443 444 445 442 446 447 448 449 440 441 450 451 453 452 499 500 501 498 502 503 504 505 308 309 310 311 312 313 307 506 507 508 302 301 303 304 306 305 318 317 319 320 321 316 314 315 374 373 372 375 376 377 378 379 380 381 390 389 388 387 391 392 393 394 395 396 371 398 397 399 400 404 405 406 407 408 409 384 383 385 386 382 431 433 434 435 436 438 437 432 430 429 428 427 426 425 424 423 422 421 420 419 417 418 410 411 412 356 402 403 401 360 359 358 357 355 354 353 352 413 414 416 415 351 350 349 348 347 362 361 363 364 346 345 344 343 342 365 368 369 370 367 366 329 328 327 326 325 323 322 324 297 296 295 294 293 292 291 330 331 332 340 341 339 338 337 336 333 335 334 283 284 285 286 287 280 281 282 279 278 288 289 290 277 276 275 274 273 272 269 270 268 271 267 298 299 265 266 264 263 262 261 260 259 258 300 257 256 255 253 254 252 251 250 249